(set-info :smt-lib-version 2.6)
(set-logic QF_BV)
(set-info :source |
 Patrice Godefroid, SAGE (systematic dynamic test generation)
 For more information: http://research.microsoft.com/en-us/um/people/pg/public_psfiles/ndss2008.pdf
|)
(set-info :category "industrial")
(set-info :status unsat)
(declare-fun T4_16 () (_ BitVec 32))
(declare-fun T4_1001 () (_ BitVec 32))
(declare-fun T4_342 () (_ BitVec 32))
(declare-fun T4_795 () (_ BitVec 32))
(declare-fun T4_655 () (_ BitVec 32))
(declare-fun T4_526 () (_ BitVec 32))
(declare-fun T4_412 () (_ BitVec 32))
(declare-fun T4_366 () (_ BitVec 32))
(declare-fun T4_262 () (_ BitVec 32))
(declare-fun T4_224 () (_ BitVec 32))
(declare-fun T4_46 () (_ BitVec 32))
(declare-fun T1_6976 () (_ BitVec 8))
(declare-fun T2_6962 () (_ BitVec 16))
(declare-fun T1_6978 () (_ BitVec 8))
(declare-fun T1_12052 () (_ BitVec 8))
(declare-fun T2_12038 () (_ BitVec 16))
(declare-fun T4_27277 () (_ BitVec 32))
(declare-fun T1_6994 () (_ BitVec 8))
(declare-fun T2_62 () (_ BitVec 16))
(declare-fun T2_60 () (_ BitVec 16))
(declare-fun T2_58 () (_ BitVec 16))
(declare-fun T2_56 () (_ BitVec 16))
(declare-fun T2_54 () (_ BitVec 16))
(declare-fun T4_392 () (_ BitVec 32))
(declare-fun T1_7016 () (_ BitVec 8))
(declare-fun T4_1005 () (_ BitVec 32))
(declare-fun T4_464 () (_ BitVec 32))
(declare-fun T2_460 () (_ BitVec 16))
(declare-fun T4_578 () (_ BitVec 32))
(declare-fun T2_574 () (_ BitVec 16))
(declare-fun T2_755 () (_ BitVec 16))
(declare-fun T2_725 () (_ BitVec 16))
(declare-fun T2_697 () (_ BitVec 16))
(declare-fun T2_665 () (_ BitVec 16))
(declare-fun T2_979 () (_ BitVec 16))
(declare-fun T2_975 () (_ BitVec 16))
(declare-fun T2_927 () (_ BitVec 16))
(declare-fun T2_921 () (_ BitVec 16))
(declare-fun T2_873 () (_ BitVec 16))
(declare-fun T2_825 () (_ BitVec 16))
(declare-fun T1_7032 () (_ BitVec 8))
(declare-fun T4_27281 () (_ BitVec 32))
(declare-fun T1_7046 () (_ BitVec 8))
(declare-fun T2_507 () (_ BitVec 16))
(declare-fun T1_12230 () (_ BitVec 8))
(declare-fun T1_12193 () (_ BitVec 8))
(declare-fun T1_12144 () (_ BitVec 8))
(declare-fun T1_12098 () (_ BitVec 8))
(declare-fun T1_12054 () (_ BitVec 8))
(declare-fun T1_755 () (_ BitVec 8))
(declare-fun T1_665 () (_ BitVec 8))
(declare-fun T1_697 () (_ BitVec 8))
(declare-fun T1_725 () (_ BitVec 8))
(declare-fun T1_27281 () (_ BitVec 8))
(declare-fun T1_27282 () (_ BitVec 8))
(declare-fun T1_27283 () (_ BitVec 8))
(declare-fun T1_27284 () (_ BitVec 8))
(declare-fun T1_27277 () (_ BitVec 8))
(declare-fun T1_27278 () (_ BitVec 8))
(declare-fun T1_27279 () (_ BitVec 8))
(declare-fun T1_27280 () (_ BitVec 8))
(declare-fun T1_12038 () (_ BitVec 8))
(declare-fun T1_12039 () (_ BitVec 8))
(declare-fun T1_6962 () (_ BitVec 8))
(declare-fun T1_6963 () (_ BitVec 8))
(declare-fun T1_1005 () (_ BitVec 8))
(declare-fun T1_1006 () (_ BitVec 8))
(declare-fun T1_1007 () (_ BitVec 8))
(declare-fun T1_1008 () (_ BitVec 8))
(declare-fun T1_1001 () (_ BitVec 8))
(declare-fun T1_1002 () (_ BitVec 8))
(declare-fun T1_1003 () (_ BitVec 8))
(declare-fun T1_1004 () (_ BitVec 8))
(declare-fun T1_979 () (_ BitVec 8))
(declare-fun T1_980 () (_ BitVec 8))
(declare-fun T1_975 () (_ BitVec 8))
(declare-fun T1_976 () (_ BitVec 8))
(declare-fun T1_927 () (_ BitVec 8))
(declare-fun T1_928 () (_ BitVec 8))
(declare-fun T1_921 () (_ BitVec 8))
(declare-fun T1_922 () (_ BitVec 8))
(declare-fun T1_873 () (_ BitVec 8))
(declare-fun T1_874 () (_ BitVec 8))
(declare-fun T1_825 () (_ BitVec 8))
(declare-fun T1_826 () (_ BitVec 8))
(declare-fun T1_795 () (_ BitVec 8))
(declare-fun T1_796 () (_ BitVec 8))
(declare-fun T1_797 () (_ BitVec 8))
(declare-fun T1_798 () (_ BitVec 8))
(declare-fun T1_756 () (_ BitVec 8))
(declare-fun T1_726 () (_ BitVec 8))
(declare-fun T1_698 () (_ BitVec 8))
(declare-fun T1_666 () (_ BitVec 8))
(declare-fun T1_655 () (_ BitVec 8))
(declare-fun T1_656 () (_ BitVec 8))
(declare-fun T1_657 () (_ BitVec 8))
(declare-fun T1_658 () (_ BitVec 8))
(declare-fun T1_578 () (_ BitVec 8))
(declare-fun T1_579 () (_ BitVec 8))
(declare-fun T1_580 () (_ BitVec 8))
(declare-fun T1_581 () (_ BitVec 8))
(declare-fun T1_574 () (_ BitVec 8))
(declare-fun T1_575 () (_ BitVec 8))
(declare-fun T1_526 () (_ BitVec 8))
(declare-fun T1_527 () (_ BitVec 8))
(declare-fun T1_528 () (_ BitVec 8))
(declare-fun T1_529 () (_ BitVec 8))
(declare-fun T1_507 () (_ BitVec 8))
(declare-fun T1_508 () (_ BitVec 8))
(declare-fun T1_464 () (_ BitVec 8))
(declare-fun T1_465 () (_ BitVec 8))
(declare-fun T1_466 () (_ BitVec 8))
(declare-fun T1_467 () (_ BitVec 8))
(declare-fun T1_460 () (_ BitVec 8))
(declare-fun T1_461 () (_ BitVec 8))
(declare-fun T1_412 () (_ BitVec 8))
(declare-fun T1_413 () (_ BitVec 8))
(declare-fun T1_414 () (_ BitVec 8))
(declare-fun T1_415 () (_ BitVec 8))
(declare-fun T1_392 () (_ BitVec 8))
(declare-fun T1_393 () (_ BitVec 8))
(declare-fun T1_394 () (_ BitVec 8))
(declare-fun T1_395 () (_ BitVec 8))
(declare-fun T1_366 () (_ BitVec 8))
(declare-fun T1_367 () (_ BitVec 8))
(declare-fun T1_368 () (_ BitVec 8))
(declare-fun T1_369 () (_ BitVec 8))
(declare-fun T1_342 () (_ BitVec 8))
(declare-fun T1_343 () (_ BitVec 8))
(declare-fun T1_344 () (_ BitVec 8))
(declare-fun T1_345 () (_ BitVec 8))
(declare-fun T1_262 () (_ BitVec 8))
(declare-fun T1_263 () (_ BitVec 8))
(declare-fun T1_264 () (_ BitVec 8))
(declare-fun T1_265 () (_ BitVec 8))
(declare-fun T1_224 () (_ BitVec 8))
(declare-fun T1_225 () (_ BitVec 8))
(declare-fun T1_226 () (_ BitVec 8))
(declare-fun T1_227 () (_ BitVec 8))
(declare-fun T1_62 () (_ BitVec 8))
(declare-fun T1_63 () (_ BitVec 8))
(declare-fun T1_60 () (_ BitVec 8))
(declare-fun T1_61 () (_ BitVec 8))
(declare-fun T1_58 () (_ BitVec 8))
(declare-fun T1_59 () (_ BitVec 8))
(declare-fun T1_56 () (_ BitVec 8))
(declare-fun T1_57 () (_ BitVec 8))
(declare-fun T1_54 () (_ BitVec 8))
(declare-fun T1_55 () (_ BitVec 8))
(declare-fun T1_46 () (_ BitVec 8))
(declare-fun T1_47 () (_ BitVec 8))
(declare-fun T1_48 () (_ BitVec 8))
(declare-fun T1_49 () (_ BitVec 8))
(declare-fun T1_16 () (_ BitVec 8))
(declare-fun T1_17 () (_ BitVec 8))
(declare-fun T1_18 () (_ BitVec 8))
(declare-fun T1_19 () (_ BitVec 8))
(assert (let ((?v_154 (bvadd T4_16 (_ bv50 32))) (?v_153 (bvsub T4_1001 (_ bv50 32)))) (let ((?v_175 (bvadd ?v_153 ?v_154)) (?v_173 (bvadd ?v_154 T4_342))) (let ((?v_172 (bvadd ?v_173 T4_342))) (let ((?v_171 (bvadd ?v_172 T4_342))) (let ((?v_170 (bvadd ?v_171 T4_342))) (let ((?v_169 (bvadd ?v_170 T4_342))) (let ((?v_168 (bvadd ?v_169 T4_342))) (let ((?v_167 (bvadd ?v_168 T4_342))) (let ((?v_165 (bvadd ?v_167 T4_342))) (let ((?v_164 (bvadd ?v_165 T4_342))) (let ((?v_163 (bvadd ?v_164 T4_342))) (let ((?v_162 (bvadd ?v_163 T4_342))) (let ((?v_161 (bvadd ?v_162 T4_342))) (let ((?v_160 (bvadd ?v_161 T4_342))) (let ((?v_157 (bvadd ?v_160 T4_342))) (let ((?v_156 (bvadd ?v_157 T4_342))) (let ((?v_174 (bvadd ?v_156 T4_342))) (let ((?v_177 (bvadd ?v_174 T4_342))) (let ((?v_178 (bvadd ?v_177 T4_342)) (?v_176 (bvult ?v_175 (_ bv27401 32))) (?v_145 (bvadd T4_46 T4_224))) (let ((?v_143 (bvadd ?v_145 T4_262))) (let ((?v_140 (bvadd ?v_143 T4_366))) (let ((?v_138 (bvadd ?v_140 T4_412))) (let ((?v_136 (bvadd ?v_138 T4_526))) (let ((?v_151 (bvadd ?v_136 T4_655)) (?v_89 ((_ zero_extend 24) T1_6976))) (let ((?v_132 (bvadd (bvadd ?v_89 (_ bv1 32)) (_ bv4264059 32))) (?v_88 (bvsub (_ bv4264053 32) ((_ zero_extend 16) T2_6962)))) (let ((?v_133 (bvadd (bvsub (bvsub ?v_88 ?v_132) (_ bv13 32)) T4_342)) (?v_128 (bvadd ?v_89 (_ bv4264060 32)))) (let ((?v_129 (bvadd (bvsub (bvsub ?v_88 ?v_128) (_ bv13 32)) T4_342)) (?v_166 ((_ zero_extend 24) T1_6978)) (?v_82 ((_ zero_extend 24) T1_12052)) (?v_81 (bvsub (_ bv4277909 32) ((_ zero_extend 16) T2_12038)))) (let ((?v_159 (bvadd (bvsub (bvsub ?v_81 (bvadd (bvadd ?v_82 (_ bv1 32)) (_ bv4277915 32))) (_ bv13 32)) T4_342)) (?v_158 (bvadd (bvsub (bvsub ?v_81 (bvadd ?v_82 (_ bv4277916 32))) (_ bv13 32)) T4_342)) (?v_155 (bvadd ?v_175 T4_27277)) (?v_135 (bvsub T4_16 (_ bv30 32))) (?v_152 (bvadd T4_795 ?v_151)) (?v_90 (bvsub (_ bv4294967295 32) ?v_166))) (let ((?v_150 (bvadd ?v_129 ?v_90)) (?v_149 ((_ zero_extend 24) T1_6994)) (?v_115 ((_ zero_extend 16) T2_62)) (?v_77 ((_ zero_extend 16) T2_60)) (?v_79 ((_ zero_extend 16) T2_58)) (?v_59 ((_ zero_extend 16) T2_56)) (?v_47 ((_ zero_extend 16) T2_54))) (let ((?v_80 (bvadd ?v_47 (_ bv34 32)))) (let ((?v_104 (bvadd ?v_80 ?v_59))) (let ((?v_116 (bvadd ?v_104 ?v_79))) (let ((?v_124 (bvadd ?v_116 ?v_77))) (let ((?v_148 (bvadd ?v_124 ?v_115)) (?v_147 (bvsub ?v_135 T4_46)) (?v_146 (bvsub ?v_135 ?v_145)) (?v_144 (bvsub ?v_135 ?v_143)) (?v_142 (bvadd T4_392 (_ bv46 32))) (?v_141 (bvsub ?v_135 ?v_140)) (?v_139 (bvsub ?v_135 ?v_138)) (?v_137 (bvsub ?v_135 ?v_136)) (?v_134 (bvsub ?v_135 ?v_151)) (?v_91 (bvsub (_ bv4294967295 32) ?v_149))) (let ((?v_131 (bvadd ?v_150 ?v_91)) (?v_130 ((_ zero_extend 24) T1_7016)) (?v_125 (bvsub T4_1005 ((_ zero_extend 24) (ite (bvult ?v_153 (_ bv0 32)) (_ bv1 8) (_ bv0 8)))))) (let ((?v_127 (bvule ?v_125 (_ bv0 32))) (?v_126 (bvule (_ bv0 32) ?v_125)) (?v_123 (bvadd T4_46 (_ bv4190118 32))) (?v_6 ((_ zero_extend 16) T2_460))) (let ((?v_112 (bvadd ?v_6 (_ bv78 32)))) (let ((?v_122 (bvadd ?v_112 T4_464)) (?v_17 ((_ zero_extend 16) T2_574))) (let ((?v_111 (bvadd ?v_17 (_ bv78 32)))) (let ((?v_121 (bvadd ?v_111 T4_578)) (?v_67 ((_ zero_extend 16) T2_755)) (?v_70 ((_ zero_extend 16) T2_725)) (?v_50 ((_ zero_extend 16) T2_697)) (?v_72 ((_ zero_extend 16) T2_665)) (?v_63 ((_ zero_extend 16) T2_979)) (?v_61 ((_ zero_extend 16) T2_975))) (let ((?v_64 (bvadd ?v_61 ?v_61)) (?v_13 ((_ zero_extend 16) T2_927))) (let ((?v_38 (bvadd ?v_13 ?v_13)) (?v_5 ((_ zero_extend 16) T2_921)) (?v_4 ((_ zero_extend 16) T2_873))) (let ((?v_12 (bvadd ?v_4 ?v_4)) (?v_3 ((_ zero_extend 16) T2_825))) (let ((?v_11 (bvadd ?v_3 ?v_3))) (let ((?v_49 (bvadd ?v_11 (_ bv50 32)))) (let ((?v_40 (bvadd ?v_49 ?v_12))) (let ((?v_23 (bvadd ?v_40 (_ bv2 32)))) (let ((?v_15 (bvadd ?v_23 ?v_5))) (let ((?v_48 (bvadd (bvadd ?v_15 (_ bv4 32)) ?v_38))) (let ((?v_65 (bvadd ?v_48 (_ bv2 32)))) (let ((?v_95 (bvadd ?v_65 ?v_64))) (let ((?v_107 (bvadd ?v_95 (_ bv2 32)))) (let ((?v_120 (bvadd ?v_107 ?v_63)) (?v_92 (bvsub (_ bv4294967295 32) ?v_130))) (let ((?v_119 (bvadd ?v_131 ?v_92)) (?v_118 ((_ zero_extend 24) T1_7032)) (?v_117 (bvadd ?v_125 T4_27281)) (?v_114 (bvadd ?v_123 T4_224))) (let ((?v_113 (bvadd ?v_114 T4_262))) (let ((?v_74 (bvadd ?v_113 T4_366))) (let ((?v_73 (bvadd ?v_74 T4_412))) (let ((?v_69 (bvadd ?v_73 T4_526))) (let ((?v_110 (bvadd T4_655 ?v_69)) (?v_100 (bvadd ?v_69 (_ bv28 32)))) (let ((?v_101 (bvadd ?v_100 ?v_72))) (let ((?v_98 (bvadd ?v_101 (_ bv4 32)))) (let ((?v_99 (bvadd ?v_98 ?v_50))) (let ((?v_71 (bvadd ?v_99 (_ bv2 32)))) (let ((?v_97 (bvadd ?v_71 ?v_70))) (let ((?v_96 (bvadd ?v_97 (_ bv4 32)))) (let ((?v_109 (bvadd ?v_96 ?v_67)) (?v_108 (bvadd ?v_69 T4_655)) (?v_93 (bvsub (_ bv4294967295 32) ?v_118))) (let ((?v_106 (bvadd ?v_119 ?v_93)) (?v_105 ((_ zero_extend 24) T1_7046)) (?v_103 (bvadd ?v_74 (_ bv78 32))) (?v_30 ((_ zero_extend 16) T2_507)) (?v_102 (bvadd ?v_73 (_ bv78 32))) (?v_66 (bvadd ?v_108 (_ bv48 32)))) (let ((?v_94 (bvsub (_ bv4294967295 32) ?v_105)) (?v_87 (bvsub (_ bv4294967295 32) ((_ zero_extend 24) T1_12230))) (?v_86 (bvsub (_ bv4294967295 32) ((_ zero_extend 24) T1_12193))) (?v_85 (bvsub (_ bv4294967295 32) ((_ zero_extend 24) T1_12144))) (?v_84 (bvsub (_ bv4294967295 32) ((_ zero_extend 24) T1_12098))) (?v_83 (bvsub (_ bv4294967295 32) ((_ zero_extend 24) T1_12054))) (?v_78 (bvadd ?v_77 (_ bv2 32))) (?v_58 (bvadd ?v_47 (_ bv4190152 32)))) (let ((?v_75 (bvadd ?v_58 ?v_59))) (let ((?v_76 (bvadd ?v_75 ?v_79)) (?v_68 (bvsub (_ bv32 32) ?v_67)) (?v_39 (bvadd (bvadd ?v_66 ?v_11) (_ bv2 32)))) (let ((?v_22 (bvadd (bvadd ?v_39 ?v_12) (_ bv2 32)))) (let ((?v_14 (bvadd (bvadd ?v_22 ?v_5) (_ bv4 32)))) (let ((?v_60 (bvadd (bvadd ?v_14 ?v_38) (_ bv2 32)))) (let ((?v_62 (bvadd (bvadd ?v_60 ?v_64) (_ bv2 32))) (?v_57 (bvsub (_ bv56 32) ?v_78)) (?v_56 (bvsub (_ bv40 32) ?v_6)) (?v_1 (bvadd ?v_6 (_ bv4294967278 32))) (?v_46 (bvadd ?v_30 (_ bv58590012 32))) (?v_45 (bvadd ?v_6 (_ bv72 32))) (?v_55 (bvadd ?v_6 (_ bv0 32))) (?v_54 (bvsub (_ bv64 32) ?v_17)) (?v_25 (bvadd ?v_17 (_ bv27 32))) (?v_53 (bvadd ?v_17 (_ bv109 32))) (?v_52 (bvadd ?v_17 (_ bv37 32))) (?v_51 (bvsub (_ bv40 32) ?v_50)) (?v_41 ((_ extract 7 0) ?v_68))) (let ((?v_37 ((_ extract 7 0) ?v_57)) (?v_36 ((_ extract 7 0) ?v_56)) (?v_0 (bvadd ?v_30 (_ bv20 32))) (?v_44 (bvadd ?v_45 (bvsub (_ bv18 32) ?v_55))) (?v_33 ((_ zero_extend 24) ((_ extract 15 8) ?v_1))) (?v_32 ((_ zero_extend 24) ((_ extract 7 0) ?v_1)))) (let ((?v_20 (bvadd ((_ zero_extend 24) ((_ extract 7 0) ?v_0)) (bvshl ((_ zero_extend 24) ((_ extract 15 8) ?v_0)) (_ bv8 32))))) (let ((?v_31 (bvadd (bvadd (bvadd ?v_20 (bvshl ?v_32 (_ bv16 32))) (bvshl ?v_33 (_ bv24 32))) ?v_1))) (let ((?v_8 (bvadd ?v_31 (_ bv64 32))) (?v_28 ((_ extract 7 0) ?v_54)) (?v_27 (bvsub ?v_17 (_ bv51 32))) (?v_43 (bvsub (_ bv88 32) ?v_25)) (?v_42 (bvsub (_ bv168 32) ?v_53)) (?v_24 ((_ extract 7 0) ?v_51)) (?v_35 (bvadd (bvadd ?v_0 ?v_1) (_ bv64 32))) (?v_34 (bvsub (_ bv32 32) ?v_0)) (?v_21 ((_ zero_extend 16) (_ bv0 16))) (?v_29 (bvsub (_ bv104 32) ?v_44))) (let ((?v_18 ((_ extract 7 0) ?v_43)) (?v_26 (bvult ?v_21 (bvadd ((_ zero_extend 24) ((_ extract 7 0) ?v_25)) (bvshl ((_ zero_extend 24) ((_ extract 15 8) ?v_25)) (_ bv8 32))))) (?v_16 ((_ extract 7 0) ?v_42)) (?v_10 ((_ extract 7 0) ?v_34)) (?v_19 (bvsub (_ bv104 32) ?v_8)) (?v_7 ((_ extract 7 0) ?v_29))) (let ((?v_2 ((_ extract 7 0) ?v_19)) (?v_9 (bvult ?v_21 (bvadd ((_ zero_extend 24) ((_ extract 7 0) ?v_8)) (bvshl ((_ zero_extend 24) ((_ extract 15 8) ?v_8)) (_ bv8 32)))))) (and true (= T4_16 (bvor (bvshl (bvor (bvshl (bvor (bvshl ((_ zero_extend 24) T1_19) (_ bv8 32)) ((_ zero_extend 24) T1_18)) (_ bv8 32)) ((_ zero_extend 24) T1_17)) (_ bv8 32)) ((_ zero_extend 24) T1_16))) (= T4_46 (bvor (bvshl (bvor (bvshl (bvor (bvshl ((_ zero_extend 24) T1_49) (_ bv8 32)) ((_ zero_extend 24) T1_48)) (_ bv8 32)) ((_ zero_extend 24) T1_47)) (_ bv8 32)) ((_ zero_extend 24) T1_46))) (= T2_54 (bvor (bvshl ((_ zero_extend 8) T1_55) (_ bv8 16)) ((_ zero_extend 8) T1_54))) (= T2_56 (bvor (bvshl ((_ zero_extend 8) T1_57) (_ bv8 16)) ((_ zero_extend 8) T1_56))) (= T2_58 (bvor (bvshl ((_ zero_extend 8) T1_59) (_ bv8 16)) ((_ zero_extend 8) T1_58))) (= T2_60 (bvor (bvshl ((_ zero_extend 8) T1_61) (_ bv8 16)) ((_ zero_extend 8) T1_60))) (= T2_62 (bvor (bvshl ((_ zero_extend 8) T1_63) (_ bv8 16)) ((_ zero_extend 8) T1_62))) (= T4_224 (bvor (bvshl (bvor (bvshl (bvor (bvshl ((_ zero_extend 24) T1_227) (_ bv8 32)) ((_ zero_extend 24) T1_226)) (_ bv8 32)) ((_ zero_extend 24) T1_225)) (_ bv8 32)) ((_ zero_extend 24) T1_224))) (= T4_262 (bvor (bvshl (bvor (bvshl (bvor (bvshl ((_ zero_extend 24) T1_265) (_ bv8 32)) ((_ zero_extend 24) T1_264)) (_ bv8 32)) ((_ zero_extend 24) T1_263)) (_ bv8 32)) ((_ zero_extend 24) T1_262))) (= T4_342 (bvor (bvshl (bvor (bvshl (bvor (bvshl ((_ zero_extend 24) T1_345) (_ bv8 32)) ((_ zero_extend 24) T1_344)) (_ bv8 32)) ((_ zero_extend 24) T1_343)) (_ bv8 32)) ((_ zero_extend 24) T1_342))) (= T4_366 (bvor (bvshl (bvor (bvshl (bvor (bvshl ((_ zero_extend 24) T1_369) (_ bv8 32)) ((_ zero_extend 24) T1_368)) (_ bv8 32)) ((_ zero_extend 24) T1_367)) (_ bv8 32)) ((_ zero_extend 24) T1_366))) (= T4_392 (bvor (bvshl (bvor (bvshl (bvor (bvshl ((_ zero_extend 24) T1_395) (_ bv8 32)) ((_ zero_extend 24) T1_394)) (_ bv8 32)) ((_ zero_extend 24) T1_393)) (_ bv8 32)) ((_ zero_extend 24) T1_392))) (= T4_412 (bvor (bvshl (bvor (bvshl (bvor (bvshl ((_ zero_extend 24) T1_415) (_ bv8 32)) ((_ zero_extend 24) T1_414)) (_ bv8 32)) ((_ zero_extend 24) T1_413)) (_ bv8 32)) ((_ zero_extend 24) T1_412))) (= T2_460 (bvor (bvshl ((_ zero_extend 8) T1_461) (_ bv8 16)) ((_ zero_extend 8) T1_460))) (= T4_464 (bvor (bvshl (bvor (bvshl (bvor (bvshl ((_ zero_extend 24) T1_467) (_ bv8 32)) ((_ zero_extend 24) T1_466)) (_ bv8 32)) ((_ zero_extend 24) T1_465)) (_ bv8 32)) ((_ zero_extend 24) T1_464))) (= T2_507 (bvor (bvshl ((_ zero_extend 8) T1_508) (_ bv8 16)) ((_ zero_extend 8) T1_507))) (= T4_526 (bvor (bvshl (bvor (bvshl (bvor (bvshl ((_ zero_extend 24) T1_529) (_ bv8 32)) ((_ zero_extend 24) T1_528)) (_ bv8 32)) ((_ zero_extend 24) T1_527)) (_ bv8 32)) ((_ zero_extend 24) T1_526))) (= T2_574 (bvor (bvshl ((_ zero_extend 8) T1_575) (_ bv8 16)) ((_ zero_extend 8) T1_574))) (= T4_578 (bvor (bvshl (bvor (bvshl (bvor (bvshl ((_ zero_extend 24) T1_581) (_ bv8 32)) ((_ zero_extend 24) T1_580)) (_ bv8 32)) ((_ zero_extend 24) T1_579)) (_ bv8 32)) ((_ zero_extend 24) T1_578))) (= T4_655 (bvor (bvshl (bvor (bvshl (bvor (bvshl ((_ zero_extend 24) T1_658) (_ bv8 32)) ((_ zero_extend 24) T1_657)) (_ bv8 32)) ((_ zero_extend 24) T1_656)) (_ bv8 32)) ((_ zero_extend 24) T1_655))) (= T2_665 (bvor (bvshl ((_ zero_extend 8) T1_666) (_ bv8 16)) ((_ zero_extend 8) T1_665))) (= T2_697 (bvor (bvshl ((_ zero_extend 8) T1_698) (_ bv8 16)) ((_ zero_extend 8) T1_697))) (= T2_725 (bvor (bvshl ((_ zero_extend 8) T1_726) (_ bv8 16)) ((_ zero_extend 8) T1_725))) (= T2_755 (bvor (bvshl ((_ zero_extend 8) T1_756) (_ bv8 16)) ((_ zero_extend 8) T1_755))) (= T4_795 (bvor (bvshl (bvor (bvshl (bvor (bvshl ((_ zero_extend 24) T1_798) (_ bv8 32)) ((_ zero_extend 24) T1_797)) (_ bv8 32)) ((_ zero_extend 24) T1_796)) (_ bv8 32)) ((_ zero_extend 24) T1_795))) (= T2_825 (bvor (bvshl ((_ zero_extend 8) T1_826) (_ bv8 16)) ((_ zero_extend 8) T1_825))) (= T2_873 (bvor (bvshl ((_ zero_extend 8) T1_874) (_ bv8 16)) ((_ zero_extend 8) T1_873))) (= T2_921 (bvor (bvshl ((_ zero_extend 8) T1_922) (_ bv8 16)) ((_ zero_extend 8) T1_921))) (= T2_927 (bvor (bvshl ((_ zero_extend 8) T1_928) (_ bv8 16)) ((_ zero_extend 8) T1_927))) (= T2_975 (bvor (bvshl ((_ zero_extend 8) T1_976) (_ bv8 16)) ((_ zero_extend 8) T1_975))) (= T2_979 (bvor (bvshl ((_ zero_extend 8) T1_980) (_ bv8 16)) ((_ zero_extend 8) T1_979))) (= T4_1001 (bvor (bvshl (bvor (bvshl (bvor (bvshl ((_ zero_extend 24) T1_1004) (_ bv8 32)) ((_ zero_extend 24) T1_1003)) (_ bv8 32)) ((_ zero_extend 24) T1_1002)) (_ bv8 32)) ((_ zero_extend 24) T1_1001))) (= T4_1005 (bvor (bvshl (bvor (bvshl (bvor (bvshl ((_ zero_extend 24) T1_1008) (_ bv8 32)) ((_ zero_extend 24) T1_1007)) (_ bv8 32)) ((_ zero_extend 24) T1_1006)) (_ bv8 32)) ((_ zero_extend 24) T1_1005))) (= T2_6962 (bvor (bvshl ((_ zero_extend 8) T1_6963) (_ bv8 16)) ((_ zero_extend 8) T1_6962))) (= T2_12038 (bvor (bvshl ((_ zero_extend 8) T1_12039) (_ bv8 16)) ((_ zero_extend 8) T1_12038))) (= T4_27277 (bvor (bvshl (bvor (bvshl (bvor (bvshl ((_ zero_extend 24) T1_27280) (_ bv8 32)) ((_ zero_extend 24) T1_27279)) (_ bv8 32)) ((_ zero_extend 24) T1_27278)) (_ bv8 32)) ((_ zero_extend 24) T1_27277))) (= T4_27281 (bvor (bvshl (bvor (bvshl (bvor (bvshl ((_ zero_extend 24) T1_27284) (_ bv8 32)) ((_ zero_extend 24) T1_27283)) (_ bv8 32)) ((_ zero_extend 24) T1_27282)) (_ bv8 32)) ((_ zero_extend 24) T1_27281))) (not (= ?v_178 (bvadd T4_16 (_ bv15278 32)))) (= (bvand ?v_2 (_ bv128 8)) (_ bv0 8)) (not (= (bvand ?v_2 (_ bv63 8)) (_ bv0 8))) (bvult (bvsub (_ bv16 32) ?v_5) (_ bv63 32)) (bvule (_ bv2 32) (bvadd ?v_15 (_ bv2 32))) (= (bvand ?v_7 (_ bv128 8)) (_ bv0 8)) (not (= (bvand ?v_7 (_ bv63 8)) (_ bv0 8))) ?v_9 ?v_9 (not (= ?v_2 (_ bv4 8))) (not (= ?v_2 (_ bv5 8))) (= (bvand ?v_10 (_ bv128 8)) (_ bv0 8)) (not (= (bvand ?v_10 (_ bv63 8)) (_ bv0 8))) (bvult ?v_14 (_ bv58591880 32)) (bvule (bvadd ?v_38 ?v_14) (_ bv58591880 32)) (not (= T2_927 (_ bv0 16))) (bvult ?v_5 (_ bv256 32)) (bvult ?v_5 (_ bv2147483648 32)) (bvule ?v_5 (_ bv2147483647 32)) (not (= ?v_5 (_ bv0 32))) (bvule ?v_5 (_ bv4294967264 32)) (bvule ?v_5 ?v_15) (= (bvand ?v_16 (_ bv128 8)) (_ bv0 8)) (not (= (bvand ?v_16 (_ bv63 8)) (_ bv0 8))) (= (bvand ?v_18 (_ bv128 8)) (_ bv0 8)) (not (= (bvand ?v_18 (_ bv63 8)) (_ bv0 8))) (not (= ?v_7 (_ bv4 8))) (not (= ?v_7 (_ bv5 8))) (bvult ?v_19 (_ bv63 32)) (not (= ?v_20 ?v_21)) (not (= ?v_10 (_ bv4 8))) (not (= ?v_10 (_ bv5 8))) (bvule (_ bv1296584 32) ?v_22) (not (= T2_873 (_ bv0 16))) (bvule (_ bv2 32) ?v_23) (= (bvand ?v_24 (_ bv128 8)) (_ bv0 8)) (not (= (bvand ?v_24 (_ bv63 8)) (_ bv0 8))) (not (= ?v_16 (_ bv4 8))) (not (= ?v_16 (_ bv5 8))) ?v_26 ?v_26 (not (= ?v_18 (_ bv4 8))) (not (= ?v_18 (_ bv5 8))) (= (bvadd ((_ zero_extend 24) ((_ extract 7 0) ?v_27)) (bvshl ((_ zero_extend 24) ((_ extract 15 8) ?v_27)) (_ bv8 32))) ?v_21) (= (bvand ?v_28 (_ bv128 8)) (_ bv0 8)) (not (= (bvand ?v_28 (_ bv63 8)) (_ bv0 8))) (bvult ?v_29 (_ bv63 32)) (not (= (bvand ?v_46 (_ bv3 32)) (_ bv0 32))) (bvule (bvadd ?v_31 (_ bv58590096 32)) (_ bv58696632 32)) (bvule (bvadd ?v_31 (_ bv58589992 32)) (_ bv58590032 32)) (bvult ?v_8 (_ bv256 32)) (bvult ?v_8 (_ bv2147483648 32)) (bvule ?v_8 (_ bv2147483647 32)) (not (= ?v_8 (_ bv0 32))) (bvule ?v_8 (_ bv4294967264 32)) (not (= (bvadd ?v_32 (bvshl ?v_33 (_ bv8 32))) ?v_21)) (bvult ?v_34 (_ bv63 32)) (bvule ?v_35 ?v_8) (bvule ?v_35 (_ bv65535 32)) (= (bvand ?v_36 (_ bv128 8)) (_ bv0 8)) (not (= (bvand ?v_36 (_ bv63 8)) (_ bv0 8))) (= (bvand ?v_37 (_ bv128 8)) (_ bv0 8)) (not (= (bvand ?v_37 (_ bv63 8)) (_ bv0 8))) (bvule (_ bv1310656 32) ?v_60) (not (= T2_975 (_ bv0 16))) (bvule ?v_38 ?v_48) (bvule (bvadd ?v_12 ?v_39) (_ bv58591824 32)) (bvult ?v_12 (_ bv256 32)) (bvule ?v_12 ?v_40) (= (bvand ?v_41 (_ bv128 8)) (_ bv0 8)) (not (= (bvand ?v_41 (_ bv63 8)) (_ bv0 8))) (not (= ?v_24 (_ bv4 8))) (not (= ?v_24 (_ bv5 8))) (bvult ?v_42 (_ bv63 32)) (bvult ?v_43 (_ bv63 32)) (bvule (_ bv78 32) (bvsub (_ bv65535 32) ?v_27)) (not (= ?v_28 (_ bv4 8))) (not (= ?v_28 (_ bv5 8))) (bvule (_ bv58687706 32) (bvadd ?v_30 (_ bv58696716 32))) (bvule (bvadd ?v_30 (_ bv84 32)) ?v_8) (bvule (bvadd ?v_30 (_ bv1310636 32)) (_ bv58589992 32)) (bvule (bvadd ?v_30 (_ bv1296543 32)) (_ bv1310636 32)) (bvule (_ bv20 32) (bvsub (_ bv65535 32) ?v_30)) (bvult ?v_44 (_ bv2147483648 32)) (bvule ?v_44 (_ bv2147483647 32)) (not (= ?v_44 (_ bv0 32))) (bvule ?v_44 (_ bv4294967264 32)) (bvult (bvsub (_ bv112 32) ?v_45) (_ bv63 32)) (bvult (_ bv1296514 32) ?v_46) (bvult ?v_0 (_ bv256 32)) (bvult ?v_0 (_ bv2147483648 32)) (bvule ?v_0 (_ bv2147483647 32)) (not (= ?v_0 (_ bv0 32))) (bvule ?v_0 (_ bv4294967264 32)) (not (= ?v_36 (_ bv4 8))) (not (= ?v_36 (_ bv5 8))) (not (= ?v_37 (_ bv4 8))) (not (= ?v_37 (_ bv5 8))) (bvule (_ bv1296496 32) ?v_58) (bvult ?v_47 (_ bv256 32)) (not (= T2_54 (_ bv0 16))) (bvule (_ bv2 32) ?v_65) (bvult ?v_39 (_ bv58591824 32)) (bvule (_ bv2 32) ?v_49) (not (= T2_825 (_ bv0 16))) (not (= ?v_41 (_ bv4 8))) (not (= ?v_41 (_ bv5 8))) (= (bvand T1_725 (_ bv1 8)) (_ bv0 8)) (= (bvand T1_697 (_ bv1 8)) (_ bv0 8)) (bvule (bvadd ?v_50 (_ bv58593144 32)) (_ bv58692800 32)) (bvule (bvadd ?v_50 (_ bv58593064 32)) (_ bv58593144 32)) (bvule (bvadd ?v_50 (_ bv1310616 32)) (_ bv58593064 32)) (bvult ?v_51 (_ bv63 32)) (= (bvand T1_665 (_ bv1 8)) (_ bv0 8)) (bvule ?v_52 (_ bv65536 32)) (not (= ?v_52 (_ bv0 32))) (bvule (bvadd ?v_17 (_ bv58697427 32)) (_ bv58697648 32)) (bvult ?v_53 (_ bv2147483648 32)) (bvule ?v_53 (_ bv2147483647 32)) (not (= ?v_53 (_ bv0 32))) (bvule ?v_53 (_ bv4294967264 32)) (bvule (bvadd ?v_17 (_ bv58590643 32)) (_ bv58697400 32)) (bvule (bvadd ?v_17 (_ bv58589955 32)) (_ bv58590616 32)) (bvule (_ bv4 32) ?v_25) (bvult ?v_25 (_ bv256 32)) (bvult ?v_25 (_ bv2147483648 32)) (bvule ?v_25 (_ bv2147483647 32)) (not (= ?v_25 (_ bv0 32))) (bvule ?v_25 (_ bv4294967264 32)) (bvult ?v_54 (_ bv63 32)) (bvult ?v_30 (_ bv256 32)) (bvule ?v_55 (_ bv65536 32)) (not (= ?v_55 (_ bv0 32))) (bvule ?v_45 (_ bv2147483647 32)) (not (= ?v_45 (_ bv0 32))) (bvule ?v_45 (_ bv4294967264 32)) (bvule (_ bv0 32) (bvadd ?v_6 (_ bv4294967274 32))) (bvule (bvadd ?v_6 (_ bv1296496 32)) ?v_46) (bvult ?v_1 (_ bv256 32)) (bvult ?v_56 (_ bv63 32)) (bvult ?v_57 (_ bv63 32)) (bvule (_ bv1296496 32) ?v_75) (bvult ?v_59 (_ bv256 32)) (not (= T2_56 (_ bv0 16))) (bvule T2_54 T2_56) (bvule ?v_47 ?v_80) (bvult ?v_62 (_ bv58590000 32)) (bvule (bvadd ?v_63 ?v_62) (_ bv58590000 32)) (bvult (bvsub (_ bv16 32) ?v_63) (_ bv63 32)) (bvule ?v_64 ?v_95) (bvult ?v_11 (_ bv256 32)) (bvule (bvadd ?v_11 ?v_66) (_ bv58591768 32)) (= (bvand T1_755 (_ bv1 8)) (_ bv0 8)) (bvule (bvadd ?v_67 (_ bv58593184 32)) (_ bv58690712 32)) (bvule (bvadd ?v_67 (_ bv58592880 32)) (_ bv58593184 32)) (bvule (bvadd ?v_67 (_ bv58589968 32)) (_ bv58592880 32)) (bvult ?v_68 (_ bv63 32)) (bvule (bvadd ?v_67 ?v_96) (_ bv58589968 32)) (bvule (bvadd ?v_70 ?v_71) (_ bv58589928 32)) (bvult ?v_70 (_ bv256 32)) (not (= T2_725 (_ bv0 16))) (bvule ?v_50 (_ bv65535 32)) (bvult (_ bv8 32) ?v_50) (bvult (_ bv0 32) ?v_50) (bvult ?v_50 (_ bv256 32)) (bvult ?v_50 (_ bv2147483648 32)) (bvule ?v_50 (_ bv2147483647 32)) (not (= ?v_50 (_ bv0 32))) (bvule ?v_50 (_ bv4294967264 32)) (bvult ?v_72 (_ bv256 32)) (not (= T2_665 (_ bv0 16))) (bvule (_ bv51 32) ?v_17) (bvule (_ bv51 16) T2_574) (bvult ?v_17 (_ bv256 32)) (bvult ?v_17 (_ bv2147483648 32)) (bvule ?v_17 (_ bv2147483647 32)) (not (= ?v_17 (_ bv0 32))) (bvule ?v_17 (_ bv4294967264 32)) (bvule (_ bv1310680 32) (bvadd ?v_102 ?v_17)) (bvult (bvsub (_ bv16 32) T4_464) (_ bv63 32)) (bvule (_ bv18 16) T2_460) (bvult ?v_6 (_ bv256 32)) (bvult ?v_6 (_ bv2147483648 32)) (bvule ?v_6 (_ bv2147483647 32)) (not (= ?v_6 (_ bv0 32))) (bvule ?v_6 (_ bv4294967264 32)) (bvule (_ bv1296536 32) (bvadd ?v_103 ?v_6)) (bvule (_ bv1296496 32) ?v_76) (bvule (_ bv1296496 32) (bvadd ?v_76 ?v_77)) (bvule (_ bv4 32) ?v_78) (bvult ?v_78 (_ bv256 32)) (bvult ?v_78 (_ bv2147483648 32)) (bvule ?v_78 (_ bv2147483647 32)) (not (= ?v_78 (_ bv0 32))) (bvule ?v_78 (_ bv4294967264 32)) (bvult ?v_79 (_ bv256 32)) (not (= T2_58 (_ bv0 16))) (bvule ?v_59 ?v_79) (bvule ?v_59 ?v_104) (= (bvadd (bvadd (bvadd (bvadd (bvadd ?v_158 ?v_83) ?v_84) ?v_85) ?v_86) ?v_87) (_ bv0 32)) (= (bvadd (bvadd (bvadd (bvadd (bvadd ?v_159 ?v_83) ?v_84) ?v_85) ?v_86) ?v_87) (_ bv0 32)) (= (bvadd ?v_106 ?v_94) (_ bv0 32)) (= (bvadd (bvadd (bvadd (bvadd (bvadd ?v_133 ?v_90) ?v_91) ?v_92) ?v_93) ?v_94) (_ bv0 32)) (bvult ?v_63 (_ bv2147483648 32)) (bvule ?v_63 (_ bv2147483647 32)) (not (= ?v_63 (_ bv0 32))) (bvule ?v_63 (_ bv4294967264 32)) (bvule (_ bv2 32) ?v_107) (bvult ?v_66 (_ bv58591768 32)) (bvule ?v_67 (_ bv512 32)) (bvule ?v_67 (_ bv65535 32)) (bvult (_ bv8 32) ?v_67) (bvult (_ bv0 32) ?v_67) (bvult ?v_67 (_ bv256 32)) (bvult ?v_67 (_ bv2147483648 32)) (bvule ?v_67 (_ bv2147483647 32)) (not (= ?v_67 (_ bv0 32))) (bvule ?v_67 (_ bv4294967264 32)) (bvult ?v_96 (_ bv58589968 32)) (bvule ?v_96 ?v_109) (bvult ?v_71 (_ bv58589928 32)) (bvule ?v_71 ?v_97) (bvule (_ bv1310616 32) ?v_98) (bvule ?v_98 ?v_99) (bvule (_ bv1296496 32) ?v_100) (bvule ?v_100 ?v_101) (bvult T4_578 (_ bv256 32)) (= T4_578 (_ bv0 32)) (bvule T4_578 (_ bv4294967264 32)) (bvule ?v_17 ?v_111) (bvule (_ bv1310616 32) ?v_102) (bvule (bvadd ?v_30 (_ bv7 32)) T4_464) (bvule (_ bv8 32) T4_464) (bvult T4_464 (_ bv256 32)) (bvult T4_464 (_ bv2147483648 32)) (bvule T4_464 (_ bv2147483647 32)) (not (= T4_464 (_ bv0 32))) (bvule T4_464 (_ bv4294967264 32)) (bvule ?v_6 ?v_112) (bvule (_ bv1296496 32) ?v_103) (bvult ?v_77 (_ bv256 32)) (not (= T2_60 (_ bv0 16))) (bvule ?v_79 ?v_77) (bvule ?v_79 ?v_116) (bvule (bvadd ?v_105 (_ bv1 32)) ?v_106) (not (= ?v_106 (_ bv0 32))) (bvule ?v_63 ?v_120) (not (= ?v_108 (_ bv0 32))) (bvule ?v_109 ?v_110) (bvule ?v_96 ?v_110) (bvule ?v_97 ?v_110) (bvule ?v_71 ?v_110) (bvule ?v_99 ?v_110) (bvule ?v_98 ?v_110) (bvule ?v_101 ?v_110) (bvule ?v_100 ?v_110) (not (= ?v_110 (_ bv0 32))) (not (= ?v_69 (_ bv0 32))) (bvule T4_578 ?v_121) (not (= ?v_73 (_ bv0 32))) (bvule T4_464 ?v_122) (not (= ?v_74 (_ bv0 32))) (bvule T4_392 (_ bv4294967264 32)) (bvule T4_392 (_ bv0 32)) (= T4_392 (_ bv0 32)) (not (= ?v_113 (_ bv0 32))) (not (= ?v_114 (_ bv0 32))) (bvult ?v_115 (_ bv256 32)) (not (= T2_62 (_ bv0 16))) (bvult ?v_115 ?v_77) (bvule ?v_77 ?v_124) (bvule T4_27281 (_ bv0 32)) (bvule ?v_117 (_ bv0 32)) (bvule (_ bv0 32) ?v_117) (bvult ?v_82 (_ bv8 32)) (not (= ?v_82 (_ bv0 32))) (= ?v_82 (_ bv1 32)) (bvule (bvadd ?v_118 (_ bv1 32)) ?v_119) (not (= ?v_119 (_ bv0 32))) (= ?v_120 T4_795) (not (= T4_795 (_ bv0 32))) (= (bvadd (bvadd (bvadd (bvadd (bvadd (bvadd ?v_72 (_ bv32 32)) ?v_50) (_ bv2 32)) ?v_70) (_ bv4 32)) ?v_67) T4_655) (not (= T4_655 (_ bv0 32))) (= ?v_121 T4_526) (= T4_526 ?v_121) (not (= T4_526 (_ bv0 32))) (= ?v_122 T4_412) (= T4_412 ?v_122) (not (= T4_412 (_ bv0 32))) (not (= T4_366 (_ bv0 32))) (= ?v_142 T4_366) (= (_ bv104 32) T4_262) (not (= T4_262 (_ bv0 32))) (= (_ bv38 32) T4_224) (not (= T4_224 (_ bv0 32))) (not (= ?v_123 (_ bv0 32))) (bvule ?v_115 ?v_148) (bvsle (_ bv0 32) ?v_125) (bvsle ?v_125 (_ bv0 32)) ?v_126 ?v_127 ?v_126 ?v_127 (bvult ?v_89 (_ bv8 32)) (not (= ?v_89 (_ bv0 32))) (= ?v_89 (_ bv1 32)) (bvule (bvsub (bvadd ?v_128 ?v_129) (_ bv4264040 32)) (_ bv846 32)) (bvule (bvadd ?v_130 (_ bv1 32)) ?v_131) (not (= ?v_131 (_ bv0 32))) (bvule (bvsub (bvadd ?v_132 ?v_133) (_ bv4264040 32)) (_ bv846 32)) (bvule T4_795 ?v_134) (bvule (_ bv44 32) ?v_134) (not (= ?v_134 (_ bv0 32))) (bvule T4_655 ?v_137) (bvule (_ bv26 32) ?v_137) (not (= ?v_137 (_ bv0 32))) (bvule T4_526 ?v_139) (bvule (_ bv78 32) ?v_139) (not (= ?v_139 (_ bv0 32))) (bvule T4_412 ?v_141) (bvule (_ bv78 32) ?v_141) (not (= ?v_141 (_ bv0 32))) (bvule ?v_142 ?v_144) (bvule (_ bv46 32) ?v_144) (not (= ?v_144 (_ bv0 32))) (bvule (_ bv104 32) ?v_146) (not (= ?v_146 (_ bv0 32))) (bvule (_ bv26 32) ?v_147) (not (= ?v_147 (_ bv0 32))) (= ?v_148 T4_46) (not (= T4_46 (_ bv0 32))) (not (= T4_1001 (_ bv50 32))) (bvule (bvadd ?v_149 (_ bv1 32)) ?v_150) (not (= ?v_150 (_ bv0 32))) (= (bvadd T4_16 (_ bv16 32)) (_ bv1001 32)) (bvule ?v_152 ?v_135) (bvult ?v_135 (bvadd ?v_152 (_ bv24 32))) (bvule (bvadd ?v_151 (_ bv24 32)) ?v_135) (bvule (bvadd (bvadd T4_655 ?v_136) (_ bv24 32)) ?v_135) (bvule (bvadd ?v_136 (_ bv24 32)) ?v_135) (bvule (bvadd (bvadd T4_526 ?v_138) (_ bv24 32)) ?v_135) (bvule (bvadd ?v_138 (_ bv24 32)) ?v_135) (bvule (bvadd (bvadd T4_412 ?v_140) (_ bv24 32)) ?v_135) (bvule (bvadd ?v_140 (_ bv24 32)) ?v_135) (bvule (bvadd (bvadd T4_366 ?v_143) (_ bv24 32)) ?v_135) (bvule (bvadd ?v_143 (_ bv24 32)) ?v_135) (bvule (bvadd (bvadd T4_262 ?v_145) (_ bv24 32)) ?v_135) (bvule (bvadd ?v_145 (_ bv24 32)) ?v_135) (bvule (bvadd (bvadd T4_224 T4_46) (_ bv24 32)) ?v_135) (bvule (bvadd T4_46 (_ bv24 32)) ?v_135) (bvule T4_46 ?v_135) (bvule (_ bv34 32) ?v_135) (bvule (_ bv24 32) ?v_135) (bvule ?v_135 (_ bv955 32)) (not (= ?v_135 (_ bv0 32))) (bvult (_ bv24 32) T4_27277) (bvule ?v_155 (_ bv27401 32)) (bvule (_ bv27401 32) ?v_155) (= ?v_156 (bvadd T4_16 (_ bv12740 32))) (= ?v_157 (bvadd T4_16 (_ bv11894 32))) (not (= ?v_158 (_ bv0 32))) (not (= ?v_159 (_ bv0 32))) (= ?v_160 (bvadd T4_16 (_ bv11048 32))) (= ?v_161 (bvadd T4_16 (_ bv10202 32))) (= ?v_162 (bvadd T4_16 (_ bv9356 32))) (= ?v_163 (bvadd T4_16 (_ bv8510 32))) (= ?v_164 (bvadd T4_16 (_ bv7664 32))) (= ?v_165 (bvadd T4_16 (_ bv6818 32))) (bvule (bvadd ?v_166 (_ bv1 32)) ?v_129) (not (= ?v_129 (_ bv0 32))) (not (= ?v_133 (_ bv0 32))) (= ?v_167 (bvadd T4_16 (_ bv5972 32))) (= ?v_168 (bvadd T4_16 (_ bv5126 32))) (= ?v_169 (bvadd T4_16 (_ bv4280 32))) (= ?v_170 (bvadd T4_16 (_ bv3434 32))) (= ?v_171 (bvadd T4_16 (_ bv2588 32))) (= ?v_172 (bvadd T4_16 (_ bv1742 32))) (= ?v_173 (bvadd T4_16 (_ bv896 32))) (bvule (_ bv1 32) (bvadd T4_342 (_ bv136 32))) (= ?v_174 (bvadd T4_16 (_ bv13586 32))) (= T4_16 (_ bv985 32)) (bvult T4_16 (bvadd T4_16 (_ bv24 32))) (= (bvadd (bvadd ?v_151 T4_795) (_ bv30 32)) T4_16) (bvule (_ bv30 32) T4_16) (not (= T4_16 (_ bv0 32))) (bvule (_ bv24 32) T4_16) (bvule T4_16 (_ bv2000 32)) (bvult (_ bv480 32) T4_16) (bvult (_ bv30 32) T4_16) (bvult T4_16 (_ bv10485760 32)) (bvule ?v_154 ?v_174) (bvule ?v_154 ?v_156) (bvule ?v_154 ?v_157) (bvule ?v_154 ?v_160) (bvule ?v_154 ?v_161) (bvule ?v_154 ?v_162) (bvule ?v_154 ?v_163) (bvule ?v_154 ?v_164) (bvule ?v_154 ?v_165) (bvule ?v_154 ?v_167) (bvule ?v_154 ?v_168) (bvule ?v_154 ?v_169) (bvule ?v_154 ?v_170) (bvule ?v_154 ?v_171) (bvule ?v_154 ?v_172) (bvule ?v_154 ?v_173) (not (= ?v_154 (_ bv4294967295 32))) (bvule (_ bv0 32) ?v_154) (not (= ?v_154 (bvadd ?v_175 (_ bv100 32)))) (not (= ?v_154 (_ bv0 32))) (bvult ?v_174 ?v_175) (bvult ?v_156 ?v_175) (bvult ?v_157 ?v_175) (bvult ?v_160 ?v_175) (bvult ?v_161 ?v_175) (bvult ?v_162 ?v_175) (bvult ?v_163 ?v_175) (bvult ?v_164 ?v_175) (bvult ?v_165 ?v_175) (bvult ?v_167 ?v_175) (bvult ?v_168 ?v_175) (bvult ?v_169 ?v_175) (bvult ?v_170 ?v_175) (bvult ?v_171 ?v_175) (bvult ?v_172 ?v_175) (bvult ?v_173 ?v_175) (bvult ?v_154 ?v_175) (not (= ?v_175 (_ bv4294967295 32))) (bvule (_ bv0 32) ?v_175) (not (= ?v_175 (_ bv1009 32))) ?v_176 ?v_176 (bvule (_ bv846 32) T4_342) (bvule T4_342 (_ bv846 32)) (bvult T4_342 (_ bv2147483648 32)) (bvsle (_ bv0 32) T4_342) (not (= T4_342 (_ bv0 32))) (= ?v_177 (bvadd T4_16 (_ bv14432 32))) (bvule ?v_154 ?v_177) (bvult ?v_177 ?v_175) (bvule ?v_154 ?v_178) (bvult ?v_178 ?v_175)))))))))))))))))))))))))))))))))))))))))))))))))))))))))))))))))))))))))))))))))))
(check-sat)
(exit)
